# LAMMPS input script for system build with input of substrate, graphene sheet and AFM tip

clear

units           metal
atom_style      atomic
neighbor        0.3 bin
neigh_modify    every 1 delay 0 check yes #every 5

boundary   	    p p f
region box block 0.0 101.89012686992 0.0 99.26936804718 -5 100
create_box      18 box

#----------------- Read data files -----------------------

read_data       afm/h-MoS2/100x_100y/sub_aSi_tip_Si_r25/K300/build/sub.lmp add append group sub
read_data       afm/h-MoS2/100x_100y/sub_aSi_tip_Si_r25/K300/build/tip.lmp add append shift 50.94506343496 49.63468402359 55.0  group tip offset 3 0 0 0 0
read_data       afm/h-MoS2/100x_100y/sub_aSi_tip_Si_r25/K300/build/h-MoS2_1.lmp add append shift 0.0 0.0 16.665 group 2D offset 6 0 0 0 0

# Apply potentials

include        afm/h-MoS2/100x_100y/sub_aSi_tip_Si_r25/K300/l_1/lammps/system.in.settings

#----------------- Create visualisation files ------------

dump            sys all atom 1000 ./afm/h-MoS2/100x_100y/sub_aSi_tip_Si_r25/K300/visuals/system_1.lammpstrj

#----------------- Minimize the system -------------------

min_style       cg
minimize        1.0e-4 1.0e-8 100 1000

timestep        0.001
thermo          100

# ----------------- Apply Nose-Hoover thermostat ----------

group           fixset union sub_fix tip_all
group           system subtract all fixset

velocity        system create 300 492847948

compute         temp_tip tip_thermo temp/partial 0 1 0
fix             lang_tip tip_thermo langevin 300 300 $(100.0*dt) 699483 zero yes
fix_modify      lang_tip temp temp_tip

compute         temp_sub sub_thermo temp/partial 0 1 0
fix             lang_sub sub_thermo langevin 300 300 $(100.0*dt) 2847563 zero yes
fix_modify      lang_sub temp temp_sub

fix             nve_all all nve

fix             sub_fix sub_fix setforce 0.0 0.0 0.0 
velocity        sub_fix set 0.0 0.0 0.0

fix             tip_f tip_all rigid/nve single force * off off off torque * off off off

run             10000

unfix           tip_f 

##########################################################
#--------------------Tip Indentation---------------------#
##########################################################
#----------------- Displace tip closer -------------------

displace_atoms  tip_all move 0.0 0.0 -20.0 units box

#----------------- Apply constraints ---------------------

fix             tip_f tip_all rigid/nve single force * off off on torque * off off off

variable        f equal 0.0
variable find index 2 5 10 20 30 50 70 85 100
label force_loop
#----------------- Set up initial parameters -------------

variable        num_floads equal 100
variable        r equal 0.0
variable        fincr equal (${find}-${f})/${num_floads}
thermo_modify   lost ignore flush yes

#----------------- Apply pressure to the tip -------------

variable i loop ${num_floads}
label loop_load

variable f equal ${f}+${fincr} 

# Set force variable

variable Fatom equal -v_f/(count(tip_fix)*1.602176565)
fix forcetip tip_fix aveforce 0.0 0.0 ${Fatom}
run 100 

unfix forcetip

next i
jump SELF loop_load

##########################################################
#---------------------Equilibration----------------------#
##########################################################

fix forcetip tip_fix aveforce 0.0 0.0 ${Fatom}
variable        dispz equal xcm(tip_fix,z)

run 100 pre yes post no

# Prepare to loop for displacement checks

label check_r

variable disp_l equal ${dispz}
variable disp_h equal ${dispz}

variable disploop loop 50
label disp

run 100 pre no post no

if '${dispz}>${disp_h}' then 'variable disp_h equal ${dispz}'
if '${dispz}<${disp_l}' then 'variable disp_l equal ${dispz}'

next disploop
jump SELF disp

variable r equal ${disp_h}-${disp_l}

# Check if r is less than 0.1

if '${r} < 0.2' then 'jump SELF loop_end' else 'jump SELF check_r'

# End of the loop

label loop_end

write_data afm/h-MoS2/100x_100y/sub_aSi_tip_Si_r25/K300/l_1/data/load_$(v_find)N.data
next find
jump SELF force_loop